Gurobi Optimizer version 9.1.2 build v9.1.2rc0 (linux64)
Thread count: 36 physical cores, 72 logical processors, using up to 32 threads
Optimize a model with 12 rows, 57 columns and 590 nonzeros
Model fingerprint: 0xf32eec78
Model has 47 quadratic constraints
Coefficient statistics:
  Matrix range     [2e-05, 3e+00]
  QMatrix range    [1e+00, 1e+00]
  QLMatrix range   [1e+00, 1e+00]
  Objective range  [8e-03, 7e-01]
  Bounds range     [1e+00, 1e+00]
  RHS range        [1e+00, 1e+00]
Presolve removed 9 rows and 0 columns

Continuous model is non-convex -- solving as a MIP.

Presolve removed 9 rows and 0 columns
Presolve time: 0.00s
Presolved: 189 rows, 57 columns, 443 nonzeros
Presolved model has 47 bilinear constraint(s)
Variable types: 57 continuous, 0 integer (0 binary)

Root relaxation: objective -1.743721e+00, 44 iterations, 0.00 seconds

    Nodes    |    Current Node    |     Objective Bounds      |     Work
 Expl Unexpl |  Obj  Depth IntInf | Incumbent    BestBd   Gap | It/Node Time

     0     0   -1.74372    0   38          -   -1.74372      -     -    0s
H    0     0                       0.6147548   -1.74372   384%     -    0s
     0     0   -1.64739    0    1    0.61475   -1.64739   368%     -    0s
H    0     0                      -1.6450460   -1.64739  0.14%     -    0s
     0     0     cutoff    0        -1.64505   -1.64505  0.00%     -    0s

Cutting planes:
  RLT: 25
  BQP: 3

Explored 1 nodes (76 simplex iterations) in 0.01 seconds
Thread count was 32 (of 72 available processors)

Solution count 2: -1.64505 0.614755 
No other solutions better than -1.64505

Optimal solution found (tolerance 1.00e-04)
Best objective -1.645045978473e+00, best bound -1.645045978473e+00, gap 0.0000%

User-callback calls 78, time in user-callback 0.00 sec
Gurobi Optimizer version 9.1.2 build v9.1.2rc0 (linux64)
Thread count: 36 physical cores, 72 logical processors, using up to 32 threads
Optimize a model with 60 rows, 300 columns and 15500 nonzeros
Model fingerprint: 0x6253a6ab
Model has 250 quadratic constraints
Coefficient statistics:
  Matrix range     [1e-06, 4e+00]
  QMatrix range    [1e+00, 1e+00]
  QLMatrix range   [1e+00, 1e+00]
  Objective range  [2e-04, 9e-01]
  Bounds range     [1e+00, 1e+00]
  RHS range        [1e+00, 1e+00]
Presolve removed 10 rows and 0 columns

Continuous model is non-convex -- solving as a MIP.

Presolve removed 10 rows and 0 columns
Presolve time: 0.01s
Presolved: 1050 rows, 300 columns, 14460 nonzeros
Presolved model has 250 bilinear constraint(s)
Variable types: 300 continuous, 0 integer (0 binary)

Root relaxation: objective -1.543954e+01, 398 iterations, 0.02 seconds

    Nodes    |    Current Node    |     Objective Bounds      |     Work
 Expl Unexpl |  Obj  Depth IntInf | Incumbent    BestBd   Gap | It/Node Time

     0     0  -15.43954    0  198          -  -15.43954      -     -    0s
H    0     0                      -5.4606612  -15.43954   183%     -    0s
     0     0  -14.37424    0  191   -5.46066  -14.37424   163%     -    0s
H    0     0                      -8.0877295  -14.37424  77.7%     -    0s
     0     0  -14.21510    0  148   -8.08773  -14.21510  75.8%     -    0s
H    0     0                      -9.4786855  -14.21510  50.0%     -    0s
     0     0  -14.18734    0  125   -9.47869  -14.18734  49.7%     -    0s
H    0     0                      -9.7101803  -14.18734  46.1%     -    0s
     0     0  -14.18682    0  127   -9.71018  -14.18682  46.1%     -    0s
     0     0  -14.18628    0  122   -9.71018  -14.18628  46.1%     -    0s
H    0     0                     -10.0179903  -14.18628  41.6%     -    0s
H    0     0                     -12.9039778  -14.18628  9.94%     -    0s
H    0     0                     -12.9620725  -14.18628  9.44%     -    0s
H    0     0                     -12.9959865  -14.18628  9.16%     -    0s
     0     2  -14.18628    0  122  -12.99599  -14.18628  9.16%     -    0s
* 1084   598              49     -12.9964041  -13.71322  5.52%  70.6    1s
* 1234   655              44     -12.9971958  -13.71322  5.51%  68.7    1s
* 1307   679              43     -12.9971959  -13.71322  5.51%  68.4    1s
* 1996  1125              54     -13.1124807  -13.71322  4.58%  60.2    2s
* 1998  1125              55     -13.1124864  -13.71322  4.58%  60.2    2s
* 2000  1125              56     -13.1124864  -13.71322  4.58%  60.1    2s
* 3765  1389              47     -13.1125232  -13.44914  2.57%  59.5    3s
* 3766  1389              47     -13.1125238  -13.44914  2.57%  59.4    3s
* 3768  1389              47     -13.1125254  -13.44914  2.57%  59.4    3s
* 3769  1389              47     -13.1125273  -13.44914  2.57%  59.4    3s
* 3958  1438              47     -13.1125418  -13.44914  2.57%  58.8    3s
* 4333  1574              58     -13.1181885  -13.44914  2.52%  58.4    3s
* 5724  1740              50     -13.1181927  -13.38579  2.04%  57.3    4s
* 5726  1740              51     -13.1181963  -13.38579  2.04%  57.2    4s
* 5731  1740              51     -13.1181965  -13.38579  2.04%  57.2    4s
* 6099  1754              61     -13.1182104  -13.33300  1.64%  56.6    4s
* 6103  1754              62     -13.1182131  -13.33300  1.64%  56.6    4s
* 6354  1745              57     -13.1182166  -13.33300  1.64%  56.2    4s
* 6360  1745              58     -13.1182177  -13.33300  1.64%  56.2    4s
* 6808  1746              66     -13.1188293  -13.29836  1.37%  55.5    4s
* 7015  1731              71     -13.1193288  -13.29836  1.36%  55.1    4s
* 7017  1731              72     -13.1193294  -13.29836  1.36%  55.1    4s
* 7018  1731              72     -13.1193295  -13.29836  1.36%  55.1    4s
* 7021  1731              72     -13.1193296  -13.29836  1.36%  55.1    4s
  7546  1748     cutoff   15       -13.11933  -13.25095  1.00%  54.7    5s
* 8174  1724              53     -13.1195760  -13.23116  0.85%  54.0    5s
* 8176  1724              54     -13.1196064  -13.23116  0.85%  54.0    5s
* 8177  1724              54     -13.1196077  -13.23116  0.85%  54.0    5s
* 8178  1724              52     -13.1196249  -13.23116  0.85%  54.0    5s
*12482  1908              61     -13.1221103  -13.18476  0.48%  49.5    6s
*12483  1908              60     -13.1223770  -13.18476  0.48%  49.5    6s
*12487  1908              60     -13.1223894  -13.18476  0.48%  49.5    6s
*12680  1908              58     -13.1366732  -13.18476  0.37%  49.1    6s
*16075  1024              48     -13.1368273  -13.15262  0.12%  46.4    7s
*16080  1024              52     -13.1368275  -13.15262  0.12%  46.3    7s
*17035  1392              50     -13.1368702  -13.14754  0.08%  45.0    7s
*17036  1392              50     -13.1368748  -13.14754  0.08%  45.0    7s
*17037  1392              49     -13.1368857  -13.14754  0.08%  45.0    7s
*17039  1392              49     -13.1369459  -13.14754  0.08%  44.9    7s
*17155  1392              49     -13.1370720  -13.14698  0.08%  44.7    7s
*17157  1392              50     -13.1370805  -13.14698  0.08%  44.7    7s
*17379  1392              61     -13.1370892  -13.14698  0.08%  44.3    7s
*17486  1392              59     -13.1375881  -13.14698  0.07%  44.1    7s
*17666  1392              42     -13.1389401  -13.14698  0.06%  43.8    7s
*17677  1392              43     -13.1389712  -13.14698  0.06%  43.8    7s
*18063  1392              50     -13.1392232  -13.14698  0.06%  43.1    7s
 23570   322  -13.14698   26  131  -13.13922  -13.14698  0.06%  45.2   10s
*26827   117              58     -13.1392386  -13.14698  0.06%  43.6   10s
*27543   202              69     -13.1392466  -13.14698  0.06%  42.9   10s
*27731   202              62     -13.1393128  -13.14698  0.06%  42.7   10s
*27925   202              61     -13.1394917  -13.14698  0.06%  42.5   10s
*27926   202              61     -13.1394932  -13.14698  0.06%  42.5   10s
*27928   202              61     -13.1395103  -13.14698  0.06%  42.5   10s
*27929   202              61     -13.1395104  -13.14698  0.06%  42.5   10s
*28071   331              69     -13.1401734  -13.14698  0.05%  42.3   11s
*28845   484              65     -13.1402044  -13.14221  0.02%  41.4   11s
*28856   484              66     -13.1402781  -13.14221  0.01%  41.4   11s
*28921   484              66     -13.1403930  -13.14221  0.01%  41.3   11s
*28989   484              68     -13.1406788  -13.14178  0.01%  41.2   11s
*28990   484              68     -13.1406793  -13.14178  0.01%  41.2   11s

Explored 29470 nodes (1197701 simplex iterations) in 11.22 seconds
Thread count was 32 (of 72 available processors)

Solution count 10: -13.1407 -13.1404 -13.1403 ... -13.1392

Optimal solution found (tolerance 1.00e-04)
Best objective -1.314067931898e+01, best bound -1.314177991064e+01, gap 0.0084%

User-callback calls 60084, time in user-callback 0.01 sec



objective value: -13.140679318975257
objective bound: -13.141779910637586
x_opt: [0.0, 1.0, 1.0, 0.0, 0.860350232540661, 1.0, 1.0, 1.0, 0.006508360407150153, 0.0, 0.9999996871059829, 0.0, 0.0, 1.0, 1.0, 1.0, 0.8066588710858423, 1.0, 0.0, 0.0, 0.0, 1.0000000000000002, 1.0, 1.0, 0.00029485271866987634, 1.0, 1.0, 0.42920995457167105, 0.0, 0.8404898099558835, 0.15581827842404433, 1.0, 0.9999385038892445, 1.0, 1.0, 1.0, 1.0, 0.04238183487725417, 0.9995980399662221, 1.0, 0.9131895325692352, 0.0, 1.0, 0.0, 0.16357296799561855, 0.7710342010560309, 0.794186640262786, 1.0, 0.0, 1.0]
GUROBI solution time: 11.219012975692749

